\ Model STL formula: (F[0.0, 4.0] ((x >= 4.0) && (x <= 3.0)))
\ LP format - for model browsing. Use MPS format to capture full model detail.
Minimize
  - rho + 0 C22 + 0 C23 + 0 C24 + 0 C25 + 0 C26 + 0 C27 + 0 C28 + 0 C29
   + 0 C30 + 0 C31 + 0 C32 + 0 C33 + 0 C34 + 0 C35 + 0 C36 + 0 C37
Subject To
 R0: - rho - 1000 predicate_2dx30be4d89f565bb0c_0 + x_0 <= 4
 R1: - rho - 1000 predicate_2dx30be4d89f565bb0c_0 + x_0 >= -996
 R2: rho + x_0 + 1000 predicate_2dx5dba1e6a7b84e365_0 >= 3
 R3: rho + x_0 + 1000 predicate_2dx5dba1e6a7b84e365_0 <= 1003
 R4: &&_2dx59e90ac5e3c73a66_0 - predicate_2dx30be4d89f565bb0c_0 <= 0
 R5: &&_2dx59e90ac5e3c73a66_0 - predicate_2dx5dba1e6a7b84e365_0 <= 0
 R6: &&_2dx59e90ac5e3c73a66_0 - predicate_2dx30be4d89f565bb0c_0
   - predicate_2dx5dba1e6a7b84e365_0 >= -1
 R7: - rho - 1000 predicate_2dx30be4d89f565bb0c_1 + x_1 <= 4
 R8: - rho - 1000 predicate_2dx30be4d89f565bb0c_1 + x_1 >= -996
 R9: rho + x_1 + 1000 predicate_2dx5dba1e6a7b84e365_1 >= 3
 R10: rho + x_1 + 1000 predicate_2dx5dba1e6a7b84e365_1 <= 1003
 R11: &&_2dx59e90ac5e3c73a66_1 - predicate_2dx30be4d89f565bb0c_1 <= 0
 R12: &&_2dx59e90ac5e3c73a66_1 - predicate_2dx5dba1e6a7b84e365_1 <= 0
 R13: &&_2dx59e90ac5e3c73a66_1 - predicate_2dx30be4d89f565bb0c_1
   - predicate_2dx5dba1e6a7b84e365_1 >= -1
 R14: - rho - 1000 predicate_2dx30be4d89f565bb0c_2 + x_2 <= 4
 R15: - rho - 1000 predicate_2dx30be4d89f565bb0c_2 + x_2 >= -996
 R16: rho + x_2 + 1000 predicate_2dx5dba1e6a7b84e365_2 >= 3
 R17: rho + x_2 + 1000 predicate_2dx5dba1e6a7b84e365_2 <= 1003
 R18: &&_2dx59e90ac5e3c73a66_2 - predicate_2dx30be4d89f565bb0c_2 <= 0
 R19: &&_2dx59e90ac5e3c73a66_2 - predicate_2dx5dba1e6a7b84e365_2 <= 0
 R20: &&_2dx59e90ac5e3c73a66_2 - predicate_2dx30be4d89f565bb0c_2
   - predicate_2dx5dba1e6a7b84e365_2 >= -1
 R21: - rho - 1000 predicate_2dx30be4d89f565bb0c_3 + x_3 <= 4
 R22: - rho - 1000 predicate_2dx30be4d89f565bb0c_3 + x_3 >= -996
 R23: rho + x_3 + 1000 predicate_2dx5dba1e6a7b84e365_3 >= 3
 R24: rho + x_3 + 1000 predicate_2dx5dba1e6a7b84e365_3 <= 1003
 R25: &&_2dx59e90ac5e3c73a66_3 - predicate_2dx30be4d89f565bb0c_3 <= 0
 R26: &&_2dx59e90ac5e3c73a66_3 - predicate_2dx5dba1e6a7b84e365_3 <= 0
 R27: &&_2dx59e90ac5e3c73a66_3 - predicate_2dx30be4d89f565bb0c_3
   - predicate_2dx5dba1e6a7b84e365_3 >= -1
 R28: - rho - 1000 predicate_2dx30be4d89f565bb0c_4 + x_4 <= 4
 R29: - rho - 1000 predicate_2dx30be4d89f565bb0c_4 + x_4 >= -996
 R30: rho + x_4 + 1000 predicate_2dx5dba1e6a7b84e365_4 >= 3
 R31: rho + x_4 + 1000 predicate_2dx5dba1e6a7b84e365_4 <= 1003
 R32: &&_2dx59e90ac5e3c73a66_4 - predicate_2dx30be4d89f565bb0c_4 <= 0
 R33: &&_2dx59e90ac5e3c73a66_4 - predicate_2dx5dba1e6a7b84e365_4 <= 0
 R34: &&_2dx59e90ac5e3c73a66_4 - predicate_2dx30be4d89f565bb0c_4
   - predicate_2dx5dba1e6a7b84e365_4 >= -1
 R35: F_2dx1c572eca09bbd309_0 - &&_2dx59e90ac5e3c73a66_0 >= 0
 R36: F_2dx1c572eca09bbd309_0 - &&_2dx59e90ac5e3c73a66_1 >= 0
 R37: F_2dx1c572eca09bbd309_0 - &&_2dx59e90ac5e3c73a66_2 >= 0
 R38: F_2dx1c572eca09bbd309_0 - &&_2dx59e90ac5e3c73a66_3 >= 0
 R39: F_2dx1c572eca09bbd309_0 - &&_2dx59e90ac5e3c73a66_4 >= 0
 R40: F_2dx1c572eca09bbd309_0 - &&_2dx59e90ac5e3c73a66_0
   - &&_2dx59e90ac5e3c73a66_1 - &&_2dx59e90ac5e3c73a66_2
   - &&_2dx59e90ac5e3c73a66_3 - &&_2dx59e90ac5e3c73a66_4 <= 0
 formula_satisfaction: F_2dx1c572eca09bbd309_0 = 1
Bounds
 -infinity <= rho <= 999
 x_0 <= 10
 x_1 <= 10
 x_2 <= 10
 x_3 <= 10
 x_4 <= 10
 C22 free
 C23 free
 C24 free
 C25 free
 C26 free
 C27 free
 C28 free
 C29 free
 C30 free
 C31 free
 C32 free
 C33 free
 C34 free
 C35 free
 C36 free
 C37 free
Binaries
 F_2dx1c572eca09bbd309_0 &&_2dx59e90ac5e3c73a66_0
 predicate_2dx30be4d89f565bb0c_0 predicate_2dx5dba1e6a7b84e365_0
 &&_2dx59e90ac5e3c73a66_1 predicate_2dx30be4d89f565bb0c_1
 predicate_2dx5dba1e6a7b84e365_1 &&_2dx59e90ac5e3c73a66_2
 predicate_2dx30be4d89f565bb0c_2 predicate_2dx5dba1e6a7b84e365_2
 &&_2dx59e90ac5e3c73a66_3 predicate_2dx30be4d89f565bb0c_3
 predicate_2dx5dba1e6a7b84e365_3 &&_2dx59e90ac5e3c73a66_4
 predicate_2dx30be4d89f565bb0c_4 predicate_2dx5dba1e6a7b84e365_4
End
